Test: Urq5_5.cnf
Options: -no-inverting-opt -sym-usage-var-bump
WARNING: for repeatability, setting FPU to use double precision
============================[ Problem Statistics ]=============================
|                                                                             |
|  Number of symmetries:           72                                         |
|  Number of invertingSyms:        72                                         |
|  Number of variables:           121                                         |
|  Number of clauses:            1210                                         |
|  Parse time:                   0.00 s                                       |
|                                                                             |
============================[ Search Statistics ]==============================
| Conflicts |          ORIGINAL         |          LEARNT          | Progress |
|           |    Vars  Clauses Literals |    Limit  Clauses Lit/Cl |          |
===============================================================================
|       100 |     121     1210     7548 |      443      114     35 |  0.007 % |
|       250 |     121     1210     7548 |      488      269     27 |  0.007 % |
|       475 |     121     1210     7548 |      536      508     27 |  0.007 % |
|       812 |     121     1210     7548 |      590      283     21 |  0.007 % |
|      1318 |     121     1210     7548 |      649      473     21 |  0.007 % |
|      2077 |     121     1210     7548 |      714      533     21 |  0.007 % |
|      3216 |     121     1210     7548 |      785      562     22 |  0.007 % |
|      4924 |     121     1210     7548 |      864      634     23 |  0.007 % |
|      7486 |     121     1210     7548 |      951      532     27 |  0.007 % |
|     11330 |     121     1210     7548 |     1046      609     23 |  0.007 % |
|     17096 |     121     1210     7548 |     1150      604     23 |  0.007 % |
|     25745 |     121     1210     7548 |     1265      876     21 |  0.007 % |
|     38719 |     121     1210     7548 |     1392     1356     22 |  0.007 % |
|     58180 |     121     1210     7548 |     1531     1144     22 |  0.007 % |
|     87372 |     121     1210     7548 |     1684     1306     25 |  0.007 % |
|    131161 |     121     1210     7548 |     1853     1406     18 |  0.007 % |
|    196845 |     121     1210     7548 |     2038     1334     21 |  0.007 % |
|    295371 |     121     1210     7548 |     2242     1579     19 |  0.007 % |
|    443160 |     121     1210     7548 |     2466     1659     27 |  0.007 % |
|    664843 |     121     1210     7548 |     2713     1558     21 |  0.007 % |
|    997368 |     121     1210     7548 |     2984     1998     28 |  0.007 % |
|   1496156 |     121     1210     7548 |     3283     1912     23 |  0.007 % |
|   2244338 |     121     1210     7548 |     3611     2157     38 |  0.007 % |
|   3366612 |     121     1210     7548 |     3972     2212     23 |  0.007 % |
|   5050023 |     121     1210     7548 |     4369     3476     32 |  0.007 % |
|   7575139 |     121     1210     7548 |     4806     2465     31 |  0.007 % |
|  11362814 |     121     1210     7548 |     5287     4523     32 |  0.007 % |
|  17044326 |     121     1210     7548 |     5816     4094     24 |  0.007 % |
===============================================================================
restarts              : 32765
conflicts             : 22106131       (67025 /sec)
symconflicts          : 1285818        (3899 /sec)
decisions             : 36473714       (0.00 % random) (110587 /sec)
propagations          : 178873573      (542336 /sec)
sympropagations       : 1285818        (3899 /sec)
conflict literals     : 630921553      (2.36 % deleted)
literals     : 630921553      (2.36 % deleted)

HEURISTIC USAGES
random                : 0           
activity w/ lookahead : 0           
activity no lookahead : 0           
original sp           : 36473714    
sym count             : 0           

Memory used           : 9.00 MB
CPU time              : 329.821 s

UNSATISFIABLE
